
n_res = 6;
rcap = [29, 28, 29, 27, 1380, 1373];
rtype = [1, 1, 1, 1, 2, 2];
n_tasks = 100;
modes =  [{1, 2, 3}, {4, 5, 6}, {7, 8, 9}, {10, 11, 12}, {13, 14, 15}, {16, 17, 18}, {19, 20, 21}, {22, 23, 24}, {25, 26, 27}, {28, 29, 30}, {31, 32, 33}, {34, 35, 36}, {37, 38, 39}, {40, 41, 42}, {43, 44, 45}, {46, 47, 48}, {49, 50, 51}, {52, 53, 54}, {55, 56, 57}, {58, 59, 60}, {61, 62, 63}, {64, 65, 66}, {67, 68, 69}, {70, 71, 72}, {73, 74, 75}, {76, 77, 78}, {79, 80, 81}, {82, 83, 84}, {85, 86, 87}, {88, 89, 90}, {91, 92, 93}, {94, 95, 96}, {97, 98, 99}, {100, 101, 102}, {103, 104, 105}, {106, 107, 108}, {109, 110, 111}, {112, 113, 114}, {115, 116, 117}, {118, 119, 120}, {121, 122, 123}, {124, 125, 126}, {127, 128, 129}, {130, 131, 132}, {133, 134, 135}, {136, 137, 138}, {139, 140, 141}, {142, 143, 144}, {145, 146, 147}, {148, 149, 150}, {151, 152, 153}, {154, 155, 156}, {157, 158, 159}, {160, 161, 162}, {163, 164, 165}, {166, 167, 168}, {169, 170, 171}, {172, 173, 174}, {175, 176, 177}, {178, 179, 180}, {181, 182, 183}, {184, 185, 186}, {187, 188, 189}, {190, 191, 192}, {193, 194, 195}, {196, 197, 198}, {199, 200, 201}, {202, 203, 204}, {205, 206, 207}, {208, 209, 210}, {211, 212, 213}, {214, 215, 216}, {217, 218, 219}, {220, 221, 222}, {223, 224, 225}, {226, 227, 228}, {229, 230, 231}, {232, 233, 234}, {235, 236, 237}, {238, 239, 240}, {241, 242, 243}, {244, 245, 246}, {247, 248, 249}, {250, 251, 252}, {253, 254, 255}, {256, 257, 258}, {259, 260, 261}, {262, 263, 264}, {265, 266, 267}, {268, 269, 270}, {271, 272, 273}, {274, 275, 276}, {277, 278, 279}, {280, 281, 282}, {283, 284, 285}, {286, 287, 288}, {289, 290, 291}, {292, 293, 294}, {295, 296, 297}, {298, 299, 300}];
succ =  [{100, 61, 54, 53, 41, 37, 34, 14, 6}, {100, 71, 70, 58, 54, 53, 52, 51, 49, 43, 40, 36, 34, 32, 27}, {99, 97, 96, 94, 91, 89, 71, 67, 66, 58, 57, 56, 54, 53, 51, 50, 43, 42, 30}, {98, 95, 70, 68, 66, 57, 48, 46, 45, 42, 41, 40, 36, 28}, {97, 95, 93, 80, 71, 69, 66, 65, 64, 59, 58, 54, 48, 45, 37, 33}, {99, 94, 90, 89, 77, 71, 70, 69, 68, 67, 66, 62, 58, 55, 49, 48, 27}, {95, 92, 91, 89, 88, 83, 69, 66, 65, 43, 40, 33}, {94, 89, 82, 71, 67, 64, 58, 57, 55, 54, 53, 50, 44, 42}, {98, 95, 94, 91, 69, 66, 65, 64, 58, 50, 42, 33}, {95, 86, 84, 67, 65, 54, 44, 42, 40, 37}, {95, 93, 92, 89, 69, 64, 59, 54, 48, 44, 33}, {98, 97, 96, 95, 90, 89, 88, 85, 80, 76, 70, 66, 65, 64, 62, 53, 48, 39}, {100, 98, 97, 95, 93, 92, 91, 90, 85, 80, 79, 78, 66, 64, 62, 59, 56, 54, 41}, {97, 96, 94, 93, 91, 90, 79, 77, 69, 57, 56, 51, 50, 48}, {99, 96, 94, 92, 89, 85, 83, 78, 70, 66, 64, 57, 52, 43}, {95, 92, 91, 89, 83, 81, 78, 77, 76, 70, 69, 54, 51, 42}, {100, 97, 96, 90, 89, 86, 84, 83, 82, 81, 80, 79, 78, 76, 70, 66, 64, 63, 61, 58}, {97, 93, 88, 87, 84, 82, 81, 77, 75, 67, 66, 61, 53, 52, 44}, {100, 96, 94, 92, 91, 90, 86, 83, 82, 81, 78, 76, 74, 66, 65, 64, 58, 57, 54}, {98, 91, 89, 83, 82, 80, 77, 76, 70, 67, 66, 65, 62, 58, 57, 53}, {94, 89, 87, 83, 76, 64, 58, 57, 51, 43}, {98, 97, 94, 91, 90, 88, 82, 80, 79, 78, 76, 75, 74, 67, 66, 63, 45}, {97, 96, 95, 93, 88, 87, 84, 82, 81, 80, 79, 78, 76, 67, 66, 46}, {98, 96, 95, 94, 91, 90, 88, 84, 83, 81, 79, 78, 77, 76, 63, 62, 51}, {97, 96, 93, 92, 91, 89, 87, 85, 82, 79, 78, 77, 75, 74, 67, 54, 52}, {100, 97, 90, 85, 83, 82, 80, 78, 76, 75, 66, 62, 45}, {97, 93, 92, 88, 87, 86, 85, 83, 82, 81, 79, 76, 74, 72, 65, 60, 57}, {97, 89, 87, 83, 82, 81, 80, 79, 76, 67, 65, 64, 61, 58}, {94, 90, 89, 87, 86, 84, 82, 79, 77, 72, 61, 49}, {93, 82, 80, 79, 78, 73, 69, 64, 62, 59, 52}, {94, 92, 91, 90, 88, 85, 82, 80, 77, 76, 75, 73, 62, 53}, {98, 94, 91, 87, 86, 80, 78, 67, 66, 65, 61, 57}, {99, 90, 87, 86, 85, 82, 81, 79, 77, 76, 68, 61, 57}, {99, 89, 88, 87, 86, 85, 79, 78, 76, 74, 73, 72, 68, 64}, {100, 85, 82, 80, 77, 76, 75, 74, 54, 53}, {94, 90, 89, 87, 85, 80, 78, 76, 75, 74, 56}, {98, 96, 91, 89, 85, 81, 76, 74, 56}, {93, 90, 86, 83, 80, 75, 72, 64, 57}, {94, 93, 92, 91, 86, 82, 81, 79, 78, 75, 72}, {96, 94, 93, 82, 81, 78, 75, 64, 63}, {96, 89, 87, 84, 83, 81, 76, 75, 74, 72}, {93, 87, 79, 75, 73, 63, 61}, {90, 81, 80, 79, 72, 68, 62}, {91, 90, 80, 79, 73, 63, 62}, {92, 89, 87, 86, 81, 77, 73, 72}, {91, 89, 85, 77, 75, 73, 62}, {92, 84, 83, 78, 75, 63}, {87, 84, 78, 74, 73, 72}, {95, 85, 83, 81, 76, 73}, {92, 83, 81, 80, 76}, {82, 80, 73, 65}, {95, 86, 76, 63}, {79, 78, 63}, {88, 73, 72}, {86, 80, 73}, {83, 63}, {84, 73}, {88, 85}, {83, 75}, {78, 73}, {62}, {74}, {72}, {77}, {75}, {73}, {72}, {84}, {86}, {75}, {72}, {}, {}, {}, {}, {}, {}, {}, {}, {}, {}, {}, {}, {}, {}, {}, {}, {}, {}, {}, {}, {}, {}, {}, {}, {}, {}, {}, {}, {}];
n_opt = 300;
dur = [14, 24, 28, 5, 12, 22, 3, 7, 8, 9, 13, 26, 15, 18, 23, 4, 9, 19, 2, 18, 24, 9, 16, 23, 15, 21, 27, 8, 19, 20, 2, 16, 18, 16, 24, 26, 9, 22, 27, 6, 14, 19, 3, 13, 28, 8, 14, 27, 5, 11, 14, 8, 18, 19, 11, 12, 17, 10, 13, 28, 20, 22, 24, 4, 11, 18, 2, 3, 26, 12, 14, 18, 4, 17, 24, 10, 22, 29, 4, 9, 15, 12, 21, 28, 6, 12, 25, 16, 22, 23, 2, 7, 28, 19, 23, 26, 14, 16, 23, 3, 7, 29, 12, 13, 28, 9, 18, 30, 5, 16, 21, 5, 28, 29, 2, 12, 18, 2, 4, 17, 2, 22, 27, 3, 7, 26, 2, 3, 13, 11, 25, 28, 15, 16, 25, 10, 15, 21, 1, 11, 30, 14, 17, 21, 3, 10, 26, 8, 18, 28, 20, 21, 28, 9, 15, 28, 6, 11, 27, 8, 22, 30, 11, 17, 29, 1, 6, 29, 11, 17, 23, 2, 15, 20, 5, 19, 26, 13, 25, 30, 1, 16, 21, 18, 25, 28, 7, 8, 25, 4, 14, 30, 11, 13, 26, 6, 12, 17, 4, 5, 27, 1, 8, 21, 3, 12, 30, 13, 22, 24, 18, 23, 27, 4, 5, 28, 3, 14, 20, 4, 5, 13, 11, 26, 30, 2, 9, 20, 5, 26, 30, 15, 20, 24, 7, 12, 22, 6, 14, 24, 11, 14, 18, 2, 11, 25, 3, 11, 18, 5, 11, 25, 3, 19, 23, 8, 10, 15, 2, 7, 29, 7, 24, 25, 6, 21, 24, 1, 13, 20, 6, 19, 29, 6, 9, 24, 11, 14, 23, 6, 12, 25, 20, 21, 22, 10, 16, 17, 22, 25, 30, 7, 8, 26, 12, 15, 30, 14, 20, 29];
rreq = [|3, 1, 1, 4, 3, 3, 4, 4, 4, 5, 3, 2, 3, 3, 3, 1, 1, 1, 2, 1, 1, 4, 2, 1, 3, 3, 3, 4, 3, 3, 5, 3, 3, 2, 2, 2, 4, 3, 1, 3, 3, 3, 3, 3, 2, 4, 2, 2, 4, 2, 2, 4, 3, 2, 4, 2, 2, 2, 1, 1, 5, 3, 2, 4, 4, 3, 2, 2, 2, 3, 2, 2, 4, 2, 2, 2, 1, 1, 3, 2, 1, 5, 5, 5, 1, 1, 1, 3, 3, 1, 3, 3, 1, 3, 3, 3, 3, 2, 2, 4, 3, 2, 5, 4, 2, 3, 3, 2, 2, 2, 2, 5, 3, 3, 2, 1, 1, 5, 4, 4, 4, 4, 3, 4, 3, 3, 5, 3, 3, 5, 2, 2, 3, 3, 3, 2, 1, 1, 4, 3, 2, 5, 3, 3, 3, 2, 1, 3, 3, 1, 2, 2, 2, 1, 1, 1, 5, 3, 3, 2, 2, 2, 5, 2, 2, 2, 1, 1, 4, 2, 2, 3, 2, 2, 1, 1, 1, 5, 4, 4, 2, 1, 1, 4, 4, 4, 5, 5, 5, 3, 3, 3, 5, 4, 3, 4, 2, 2, 4, 3, 2, 3, 2, 2, 1, 1, 1, 3, 2, 1, 5, 4, 3, 4, 3, 3, 3, 2, 2, 3, 2, 2, 4, 4, 4, 4, 4, 3, 4, 4, 4, 3, 2, 2, 3, 3, 3, 2, 2, 2, 4, 2, 2, 2, 1, 1, 1, 1, 1, 4, 4, 4, 4, 3, 3, 3, 3, 2, 5, 2, 2, 5, 3, 3, 2, 2, 1, 4, 2, 2, 4, 3, 3, 4, 3, 3, 5, 4, 4, 5, 3, 3, 4, 3, 3, 4, 3, 2, 4, 2, 2, 3, 3, 2, 3, 2, 2, 2, 1, 1
 |5, 4, 3, 4, 2, 2, 2, 1, 1, 4, 4, 4, 3, 2, 2, 4, 3, 3, 3, 2, 2, 5, 4, 3, 4, 3, 3, 4, 3, 2, 4, 3, 3, 2, 2, 2, 2, 2, 2, 4, 4, 2, 5, 2, 2, 3, 2, 2, 3, 1, 1, 3, 3, 1, 4, 2, 1, 4, 4, 3, 3, 3, 3, 2, 2, 2, 4, 2, 1, 2, 2, 2, 2, 2, 2, 3, 3, 3, 4, 3, 2, 2, 2, 2, 2, 2, 2, 3, 3, 3, 5, 3, 3, 3, 3, 3, 3, 3, 2, 4, 2, 1, 4, 4, 3, 4, 3, 3, 5, 4, 4, 3, 2, 1, 4, 3, 3, 3, 3, 3, 3, 2, 2, 5, 3, 3, 1, 1, 1, 3, 2, 1, 5, 5, 5, 3, 2, 2, 3, 2, 2, 4, 4, 4, 5, 4, 4, 3, 3, 2, 2, 2, 1, 2, 1, 1, 3, 3, 3, 4, 3, 3, 3, 2, 2, 4, 2, 1, 3, 3, 2, 2, 2, 2, 1, 1, 1, 5, 4, 4, 4, 3, 2, 2, 2, 2, 4, 2, 1, 4, 2, 2, 4, 3, 2, 5, 5, 5, 2, 1, 1, 1, 1, 1, 3, 3, 2, 2, 2, 2, 4, 4, 3, 5, 5, 5, 3, 3, 3, 4, 4, 4, 4, 2, 2, 2, 2, 2, 3, 2, 1, 2, 2, 2, 3, 3, 3, 4, 3, 3, 4, 2, 2, 4, 2, 2, 4, 4, 4, 5, 5, 5, 4, 4, 3, 2, 1, 1, 2, 1, 1, 3, 3, 2, 4, 3, 3, 4, 4, 3, 1, 1, 1, 4, 4, 4, 3, 2, 2, 3, 3, 1, 4, 4, 4, 4, 3, 3, 3, 3, 1, 4, 3, 2, 5, 5, 5, 5, 4, 4
 |5, 4, 4, 1, 1, 1, 5, 4, 4, 3, 2, 1, 5, 5, 5, 4, 4, 4, 3, 3, 1, 1, 1, 1, 3, 3, 1, 3, 2, 2, 2, 1, 1, 4, 4, 3, 4, 3, 3, 4, 4, 4, 5, 5, 5, 4, 3, 1, 2, 2, 2, 4, 3, 3, 4, 3, 3, 3, 1, 1, 3, 3, 2, 4, 3, 2, 2, 2, 2, 3, 1, 1, 4, 4, 3, 4, 4, 3, 5, 4, 4, 3, 3, 1, 4, 3, 3, 5, 3, 2, 4, 3, 1, 3, 2, 2, 3, 3, 3, 2, 2, 2, 4, 2, 2, 3, 2, 2, 3, 3, 3, 5, 5, 5, 1, 1, 1, 3, 3, 3, 4, 3, 3, 3, 3, 3, 5, 4, 3, 4, 3, 3, 5, 4, 4, 1, 1, 1, 3, 2, 2, 3, 2, 2, 4, 3, 3, 4, 4, 4, 3, 3, 1, 3, 2, 2, 1, 1, 1, 1, 1, 1, 3, 2, 1, 3, 2, 1, 3, 2, 1, 4, 3, 3, 3, 2, 1, 1, 1, 1, 4, 3, 2, 5, 4, 3, 3, 2, 2, 2, 1, 1, 3, 2, 2, 3, 2, 1, 3, 2, 2, 4, 3, 3, 3, 2, 2, 5, 4, 4, 5, 4, 2, 2, 2, 2, 2, 2, 2, 5, 3, 3, 4, 2, 1, 3, 3, 3, 4, 4, 3, 1, 1, 1, 3, 3, 1, 3, 2, 1, 1, 1, 1, 3, 2, 1, 4, 3, 3, 5, 5, 5, 2, 2, 2, 2, 2, 2, 4, 2, 2, 5, 4, 4, 3, 3, 3, 4, 4, 4, 4, 3, 3, 4, 3, 3, 5, 4, 3, 3, 3, 3, 1, 1, 1, 1, 1, 1, 5, 3, 3, 4, 4, 3, 3, 2, 2, 3, 2, 1
 |3, 2, 2, 2, 2, 2, 5, 5, 5, 3, 3, 1, 4, 2, 1, 2, 1, 1, 5, 3, 3, 3, 2, 2, 5, 4, 4, 5, 4, 4, 1, 1, 1, 5, 5, 5, 1, 1, 1, 2, 1, 1, 3, 2, 2, 4, 3, 2, 4, 3, 3, 5, 2, 2, 3, 3, 2, 3, 1, 1, 2, 2, 2, 2, 2, 2, 3, 3, 3, 5, 2, 1, 5, 5, 5, 4, 4, 4, 1, 1, 1, 4, 4, 4, 3, 3, 3, 4, 4, 4, 4, 4, 4, 2, 1, 1, 4, 4, 4, 4, 4, 4, 1, 1, 1, 2, 2, 2, 4, 3, 3, 2, 2, 1, 3, 3, 3, 3, 1, 1, 3, 3, 3, 1, 1, 1, 4, 2, 2, 3, 3, 2, 3, 3, 3, 3, 3, 3, 1, 1, 1, 3, 3, 1, 1, 1, 1, 1, 1, 1, 3, 2, 1, 2, 1, 1, 4, 4, 3, 5, 2, 2, 2, 2, 1, 4, 3, 3, 3, 3, 3, 2, 2, 2, 5, 5, 5, 4, 4, 4, 5, 3, 2, 3, 2, 2, 4, 4, 4, 3, 2, 2, 5, 2, 2, 2, 1, 1, 1, 1, 1, 4, 4, 4, 5, 4, 3, 1, 1, 1, 5, 5, 5, 3, 3, 3, 4, 4, 2, 3, 3, 3, 2, 2, 1, 3, 3, 3, 3, 3, 3, 2, 1, 1, 3, 2, 2, 2, 2, 1, 5, 3, 3, 5, 5, 5, 4, 3, 2, 5, 2, 2, 5, 5, 5, 3, 3, 3, 3, 3, 1, 4, 3, 2, 2, 1, 1, 4, 3, 3, 4, 3, 2, 5, 4, 4, 4, 4, 3, 3, 2, 2, 2, 2, 2, 5, 4, 3, 3, 3, 3, 4, 4, 3, 5, 3, 3, 2, 1, 1
 |2, 1, 1, 27, 16, 14, 22, 21, 11, 10, 7, 6, 2, 2, 2, 12, 11, 6, 12, 10, 9, 20, 18, 14, 17, 15, 13, 29, 23, 14, 21, 21, 21, 21, 19, 16, 22, 20, 16, 29, 19, 6, 25, 18, 15, 12, 6, 3, 10, 8, 6, 22, 21, 21, 10, 5, 2, 25, 20, 14, 19, 17, 16, 27, 23, 17, 9, 9, 9, 28, 22, 21, 20, 15, 9, 17, 13, 4, 25, 24, 21, 24, 24, 24, 2, 1, 1, 11, 9, 7, 26, 21, 15, 22, 16, 11, 19, 16, 11, 23, 17, 10, 22, 21, 19, 12, 10, 6, 17, 15, 11, 24, 12, 6, 25, 16, 6, 8, 4, 2, 15, 14, 13, 20, 17, 10, 24, 23, 22, 26, 21, 20, 17, 16, 16, 13, 11, 8, 29, 27, 25, 9, 8, 8, 30, 27, 27, 14, 6, 6, 15, 15, 11, 12, 10, 8, 29, 25, 25, 21, 13, 10, 26, 16, 8, 22, 16, 10, 25, 21, 13, 20, 14, 11, 6, 5, 3, 21, 18, 11, 14, 13, 12, 21, 18, 17, 20, 13, 11, 5, 4, 4, 30, 25, 20, 7, 6, 5, 25, 22, 18, 28, 26, 25, 16, 15, 14, 25, 18, 9, 24, 14, 8, 29, 22, 20, 22, 10, 5, 15, 15, 12, 28, 25, 25, 5, 5, 3, 19, 15, 14, 26, 26, 26, 24, 22, 21, 24, 24, 24, 23, 21, 19, 23, 18, 12, 20, 17, 13, 18, 14, 9, 13, 9, 6, 20, 11, 3, 26, 21, 19, 29, 28, 28, 7, 3, 3, 19, 12, 8, 23, 14, 6, 11, 9, 8, 18, 17, 9, 5, 4, 4, 16, 14, 13, 13, 13, 12, 22, 18, 18, 13, 10, 6, 9, 9, 6, 23, 19, 17
 |23, 19, 6, 25, 12, 3, 12, 10, 8, 25, 17, 13, 29, 13, 11, 14, 9, 1, 24, 24, 24, 11, 6, 3, 19, 18, 17, 25, 25, 25, 14, 13, 12, 8, 8, 4, 29, 27, 27, 3, 2, 2, 4, 4, 2, 19, 17, 14, 24, 24, 22, 15, 9, 2, 28, 28, 27, 13, 7, 6, 19, 18, 18, 20, 15, 4, 9, 9, 9, 27, 21, 11, 10, 6, 3, 24, 24, 20, 15, 12, 6, 15, 11, 4, 20, 14, 13, 25, 13, 1, 21, 18, 14, 24, 20, 14, 19, 17, 6, 21, 14, 3, 16, 15, 15, 16, 13, 3, 17, 15, 14, 29, 28, 28, 19, 16, 11, 16, 14, 11, 10, 7, 7, 13, 12, 9, 28, 16, 11, 19, 13, 12, 23, 15, 9, 13, 13, 12, 18, 16, 15, 16, 12, 7, 29, 28, 26, 26, 15, 13, 26, 23, 17, 14, 14, 11, 19, 18, 17, 19, 12, 6, 27, 15, 12, 29, 17, 5, 20, 18, 13, 10, 9, 8, 27, 24, 20, 25, 20, 18, 20, 18, 17, 9, 4, 2, 18, 18, 17, 16, 9, 3, 21, 18, 17, 10, 9, 9, 16, 13, 4, 29, 24, 23, 13, 12, 9, 24, 23, 23, 19, 18, 15, 21, 11, 8, 30, 23, 13, 16, 16, 12, 8, 8, 7, 26, 19, 16, 27, 27, 27, 26, 23, 20, 18, 17, 14, 11, 8, 7, 25, 23, 21, 19, 11, 2, 29, 18, 8, 17, 11, 6, 12, 12, 12, 27, 27, 27, 21, 12, 9, 28, 23, 14, 23, 13, 11, 26, 17, 12, 23, 19, 15, 19, 19, 19, 23, 14, 13, 4, 2, 2, 15, 15, 15, 19, 16, 16, 28, 12, 5, 17, 15, 12, 16, 13, 11, 9, 7, 7|];